100
32
5
25
3
27
28
23
4
6
2
1
1
6
18
19
31
19
19
28
20
29
10
31
15
9
5
16
30
32
5
12
13
14
6
12
23
30
28
13
5
20
14
5
27
7
29
7
12
5
17
17
9
12
13
28
2
22
1
7
30
31
12
9
24
13
21
30
19
23
6
20
16
26
22
19
22
11
25
14
5
16
25
31
14
28
30
15
17
5
28
20
22
22
2
7
17
2
15
30
13
19